p cnf 64 46
1 2 3 4 5 6 7 8 0
9 10 11 12 13 14 15 16 0
17 18 19 20 21 22 23 24 0
25 26 27 28 29 30 31 32 0
33 34 35 36 37 38 39 40 0
41 42 43 44 45 46 47 48 0
49 50 51 52 53 54 55 56 0
57 58 59 60 61 62 63 64 0
1 9 17 25 33 41 49 57 0
2 10 18 26 34 42 50 58 0
3 11 19 27 35 43 51 59 0
4 12 20 28 36 44 52 60 0
5 13 21 29 37 45 53 61 0
6 14 22 30 38 46 54 62 0
7 15 23 31 39 47 55 63 0
8 16 24 32 40 48 56 64 0
8 0
7 16 0
6 15 24 0
5 14 23 32 0
4 13 22 31 40 0
3 12 21 30 39 48 0
2 11 20 29 38 47 56 0
1 10 19 28 37 46 55 64 0
9 18 27 36 45 54 63 0
17 26 35 44 53 62 0
25 34 43 52 61 0
33 42 51 60 0
41 50 59 0
49 58 0
57 0
1 0
2 9 0
3 10 17 0
4 11 18 25 0
5 12 19 26 33 0
6 13 20 27 34 41 0
7 14 21 28 35 42 49 0
8 15 22 29 36 43 50 57 0
16 23 30 37 44 51 58 0
24 31 38 45 52 59 0
32 39 46 53 60 0
40 47 54 61 0
48 55 62 0
56 63 0
64 0
